p cnf 570 960
59 60 1 91 92 0
59 60 1 91 -92 0
59 60 1 -91 92 0
59 60 1 -91 -92 0
-59 -60 1 93 94 0
-59 -60 1 93 -94 0
-59 -60 1 -93 94 0
-59 -60 1 -93 -94 0
59 -60 -1 95 96 0
59 -60 -1 95 -96 0
59 -60 -1 -95 96 0
59 -60 -1 -95 -96 0
-59 60 -1 97 98 0
-59 60 -1 97 -98 0
-59 60 -1 -97 98 0
-59 60 -1 -97 -98 0
1 61 2 99 100 0
1 61 2 99 -100 0
1 61 2 -99 100 0
1 61 2 -99 -100 0
-1 -61 2 101 102 0
-1 -61 2 101 -102 0
-1 -61 2 -101 102 0
-1 -61 2 -101 -102 0
1 -61 -2 103 104 0
1 -61 -2 103 -104 0
1 -61 -2 -103 104 0
1 -61 -2 -103 -104 0
-1 61 -2 105 106 0
-1 61 -2 105 -106 0
-1 61 -2 -105 106 0
-1 61 -2 -105 -106 0
2 62 3 107 108 0
2 62 3 107 -108 0
2 62 3 -107 108 0
2 62 3 -107 -108 0
-2 -62 3 109 110 0
-2 -62 3 109 -110 0
-2 -62 3 -109 110 0
-2 -62 3 -109 -110 0
2 -62 -3 111 112 0
2 -62 -3 111 -112 0
2 -62 -3 -111 112 0
2 -62 -3 -111 -112 0
-2 62 -3 113 114 0
-2 62 -3 113 -114 0
-2 62 -3 -113 114 0
-2 62 -3 -113 -114 0
3 63 4 115 116 0
3 63 4 115 -116 0
3 63 4 -115 116 0
3 63 4 -115 -116 0
-3 -63 4 117 118 0
-3 -63 4 117 -118 0
-3 -63 4 -117 118 0
-3 -63 4 -117 -118 0
3 -63 -4 119 120 0
3 -63 -4 119 -120 0
3 -63 -4 -119 120 0
3 -63 -4 -119 -120 0
-3 63 -4 121 122 0
-3 63 -4 121 -122 0
-3 63 -4 -121 122 0
-3 63 -4 -121 -122 0
4 64 5 123 124 0
4 64 5 123 -124 0
4 64 5 -123 124 0
4 64 5 -123 -124 0
-4 -64 5 125 126 0
-4 -64 5 125 -126 0
-4 -64 5 -125 126 0
-4 -64 5 -125 -126 0
4 -64 -5 127 128 0
4 -64 -5 127 -128 0
4 -64 -5 -127 128 0
4 -64 -5 -127 -128 0
-4 64 -5 129 130 0
-4 64 -5 129 -130 0
-4 64 -5 -129 130 0
-4 64 -5 -129 -130 0
5 65 6 131 132 0
5 65 6 131 -132 0
5 65 6 -131 132 0
5 65 6 -131 -132 0
-5 -65 6 133 134 0
-5 -65 6 133 -134 0
-5 -65 6 -133 134 0
-5 -65 6 -133 -134 0
5 -65 -6 135 136 0
5 -65 -6 135 -136 0
5 -65 -6 -135 136 0
5 -65 -6 -135 -136 0
-5 65 -6 137 138 0
-5 65 -6 137 -138 0
-5 65 -6 -137 138 0
-5 65 -6 -137 -138 0
6 66 7 139 140 0
6 66 7 139 -140 0
6 66 7 -139 140 0
6 66 7 -139 -140 0
-6 -66 7 141 142 0
-6 -66 7 141 -142 0
-6 -66 7 -141 142 0
-6 -66 7 -141 -142 0
6 -66 -7 143 144 0
6 -66 -7 143 -144 0
6 -66 -7 -143 144 0
6 -66 -7 -143 -144 0
-6 66 -7 145 146 0
-6 66 -7 145 -146 0
-6 66 -7 -145 146 0
-6 66 -7 -145 -146 0
7 67 8 147 148 0
7 67 8 147 -148 0
7 67 8 -147 148 0
7 67 8 -147 -148 0
-7 -67 8 149 150 0
-7 -67 8 149 -150 0
-7 -67 8 -149 150 0
-7 -67 8 -149 -150 0
7 -67 -8 151 152 0
7 -67 -8 151 -152 0
7 -67 -8 -151 152 0
7 -67 -8 -151 -152 0
-7 67 -8 153 154 0
-7 67 -8 153 -154 0
-7 67 -8 -153 154 0
-7 67 -8 -153 -154 0
8 68 9 155 156 0
8 68 9 155 -156 0
8 68 9 -155 156 0
8 68 9 -155 -156 0
-8 -68 9 157 158 0
-8 -68 9 157 -158 0
-8 -68 9 -157 158 0
-8 -68 9 -157 -158 0
8 -68 -9 159 160 0
8 -68 -9 159 -160 0
8 -68 -9 -159 160 0
8 -68 -9 -159 -160 0
-8 68 -9 161 162 0
-8 68 -9 161 -162 0
-8 68 -9 -161 162 0
-8 68 -9 -161 -162 0
9 69 10 163 164 0
9 69 10 163 -164 0
9 69 10 -163 164 0
9 69 10 -163 -164 0
-9 -69 10 165 166 0
-9 -69 10 165 -166 0
-9 -69 10 -165 166 0
-9 -69 10 -165 -166 0
9 -69 -10 167 168 0
9 -69 -10 167 -168 0
9 -69 -10 -167 168 0
9 -69 -10 -167 -168 0
-9 69 -10 169 170 0
-9 69 -10 169 -170 0
-9 69 -10 -169 170 0
-9 69 -10 -169 -170 0
10 70 11 171 172 0
10 70 11 171 -172 0
10 70 11 -171 172 0
10 70 11 -171 -172 0
-10 -70 11 173 174 0
-10 -70 11 173 -174 0
-10 -70 11 -173 174 0
-10 -70 11 -173 -174 0
10 -70 -11 175 176 0
10 -70 -11 175 -176 0
10 -70 -11 -175 176 0
10 -70 -11 -175 -176 0
-10 70 -11 177 178 0
-10 70 -11 177 -178 0
-10 70 -11 -177 178 0
-10 70 -11 -177 -178 0
11 71 12 179 180 0
11 71 12 179 -180 0
11 71 12 -179 180 0
11 71 12 -179 -180 0
-11 -71 12 181 182 0
-11 -71 12 181 -182 0
-11 -71 12 -181 182 0
-11 -71 12 -181 -182 0
11 -71 -12 183 184 0
11 -71 -12 183 -184 0
11 -71 -12 -183 184 0
11 -71 -12 -183 -184 0
-11 71 -12 185 186 0
-11 71 -12 185 -186 0
-11 71 -12 -185 186 0
-11 71 -12 -185 -186 0
12 72 13 187 188 0
12 72 13 187 -188 0
12 72 13 -187 188 0
12 72 13 -187 -188 0
-12 -72 13 189 190 0
-12 -72 13 189 -190 0
-12 -72 13 -189 190 0
-12 -72 13 -189 -190 0
12 -72 -13 191 192 0
12 -72 -13 191 -192 0
12 -72 -13 -191 192 0
12 -72 -13 -191 -192 0
-12 72 -13 193 194 0
-12 72 -13 193 -194 0
-12 72 -13 -193 194 0
-12 72 -13 -193 -194 0
13 73 14 195 196 0
13 73 14 195 -196 0
13 73 14 -195 196 0
13 73 14 -195 -196 0
-13 -73 14 197 198 0
-13 -73 14 197 -198 0
-13 -73 14 -197 198 0
-13 -73 14 -197 -198 0
13 -73 -14 199 200 0
13 -73 -14 199 -200 0
13 -73 -14 -199 200 0
13 -73 -14 -199 -200 0
-13 73 -14 201 202 0
-13 73 -14 201 -202 0
-13 73 -14 -201 202 0
-13 73 -14 -201 -202 0
14 74 15 203 204 0
14 74 15 203 -204 0
14 74 15 -203 204 0
14 74 15 -203 -204 0
-14 -74 15 205 206 0
-14 -74 15 205 -206 0
-14 -74 15 -205 206 0
-14 -74 15 -205 -206 0
14 -74 -15 207 208 0
14 -74 -15 207 -208 0
14 -74 -15 -207 208 0
14 -74 -15 -207 -208 0
-14 74 -15 209 210 0
-14 74 -15 209 -210 0
-14 74 -15 -209 210 0
-14 74 -15 -209 -210 0
15 75 16 211 212 0
15 75 16 211 -212 0
15 75 16 -211 212 0
15 75 16 -211 -212 0
-15 -75 16 213 214 0
-15 -75 16 213 -214 0
-15 -75 16 -213 214 0
-15 -75 16 -213 -214 0
15 -75 -16 215 216 0
15 -75 -16 215 -216 0
15 -75 -16 -215 216 0
15 -75 -16 -215 -216 0
-15 75 -16 217 218 0
-15 75 -16 217 -218 0
-15 75 -16 -217 218 0
-15 75 -16 -217 -218 0
16 76 17 219 220 0
16 76 17 219 -220 0
16 76 17 -219 220 0
16 76 17 -219 -220 0
-16 -76 17 221 222 0
-16 -76 17 221 -222 0
-16 -76 17 -221 222 0
-16 -76 17 -221 -222 0
16 -76 -17 223 224 0
16 -76 -17 223 -224 0
16 -76 -17 -223 224 0
16 -76 -17 -223 -224 0
-16 76 -17 225 226 0
-16 76 -17 225 -226 0
-16 76 -17 -225 226 0
-16 76 -17 -225 -226 0
17 77 18 227 228 0
17 77 18 227 -228 0
17 77 18 -227 228 0
17 77 18 -227 -228 0
-17 -77 18 229 230 0
-17 -77 18 229 -230 0
-17 -77 18 -229 230 0
-17 -77 18 -229 -230 0
17 -77 -18 231 232 0
17 -77 -18 231 -232 0
17 -77 -18 -231 232 0
17 -77 -18 -231 -232 0
-17 77 -18 233 234 0
-17 77 -18 233 -234 0
-17 77 -18 -233 234 0
-17 77 -18 -233 -234 0
18 78 19 235 236 0
18 78 19 235 -236 0
18 78 19 -235 236 0
18 78 19 -235 -236 0
-18 -78 19 237 238 0
-18 -78 19 237 -238 0
-18 -78 19 -237 238 0
-18 -78 19 -237 -238 0
18 -78 -19 239 240 0
18 -78 -19 239 -240 0
18 -78 -19 -239 240 0
18 -78 -19 -239 -240 0
-18 78 -19 241 242 0
-18 78 -19 241 -242 0
-18 78 -19 -241 242 0
-18 78 -19 -241 -242 0
19 79 20 243 244 0
19 79 20 243 -244 0
19 79 20 -243 244 0
19 79 20 -243 -244 0
-19 -79 20 245 246 0
-19 -79 20 245 -246 0
-19 -79 20 -245 246 0
-19 -79 20 -245 -246 0
19 -79 -20 247 248 0
19 -79 -20 247 -248 0
19 -79 -20 -247 248 0
19 -79 -20 -247 -248 0
-19 79 -20 249 250 0
-19 79 -20 249 -250 0
-19 79 -20 -249 250 0
-19 79 -20 -249 -250 0
20 80 21 251 252 0
20 80 21 251 -252 0
20 80 21 -251 252 0
20 80 21 -251 -252 0
-20 -80 21 253 254 0
-20 -80 21 253 -254 0
-20 -80 21 -253 254 0
-20 -80 21 -253 -254 0
20 -80 -21 255 256 0
20 -80 -21 255 -256 0
20 -80 -21 -255 256 0
20 -80 -21 -255 -256 0
-20 80 -21 257 258 0
-20 80 -21 257 -258 0
-20 80 -21 -257 258 0
-20 80 -21 -257 -258 0
21 81 22 259 260 0
21 81 22 259 -260 0
21 81 22 -259 260 0
21 81 22 -259 -260 0
-21 -81 22 261 262 0
-21 -81 22 261 -262 0
-21 -81 22 -261 262 0
-21 -81 22 -261 -262 0
21 -81 -22 263 264 0
21 -81 -22 263 -264 0
21 -81 -22 -263 264 0
21 -81 -22 -263 -264 0
-21 81 -22 265 266 0
-21 81 -22 265 -266 0
-21 81 -22 -265 266 0
-21 81 -22 -265 -266 0
22 82 23 267 268 0
22 82 23 267 -268 0
22 82 23 -267 268 0
22 82 23 -267 -268 0
-22 -82 23 269 270 0
-22 -82 23 269 -270 0
-22 -82 23 -269 270 0
-22 -82 23 -269 -270 0
22 -82 -23 271 272 0
22 -82 -23 271 -272 0
22 -82 -23 -271 272 0
22 -82 -23 -271 -272 0
-22 82 -23 273 274 0
-22 82 -23 273 -274 0
-22 82 -23 -273 274 0
-22 82 -23 -273 -274 0
23 83 24 275 276 0
23 83 24 275 -276 0
23 83 24 -275 276 0
23 83 24 -275 -276 0
-23 -83 24 277 278 0
-23 -83 24 277 -278 0
-23 -83 24 -277 278 0
-23 -83 24 -277 -278 0
23 -83 -24 279 280 0
23 -83 -24 279 -280 0
23 -83 -24 -279 280 0
23 -83 -24 -279 -280 0
-23 83 -24 281 282 0
-23 83 -24 281 -282 0
-23 83 -24 -281 282 0
-23 83 -24 -281 -282 0
24 84 25 283 284 0
24 84 25 283 -284 0
24 84 25 -283 284 0
24 84 25 -283 -284 0
-24 -84 25 285 286 0
-24 -84 25 285 -286 0
-24 -84 25 -285 286 0
-24 -84 25 -285 -286 0
24 -84 -25 287 288 0
24 -84 -25 287 -288 0
24 -84 -25 -287 288 0
24 -84 -25 -287 -288 0
-24 84 -25 289 290 0
-24 84 -25 289 -290 0
-24 84 -25 -289 290 0
-24 84 -25 -289 -290 0
25 85 26 291 292 0
25 85 26 291 -292 0
25 85 26 -291 292 0
25 85 26 -291 -292 0
-25 -85 26 293 294 0
-25 -85 26 293 -294 0
-25 -85 26 -293 294 0
-25 -85 26 -293 -294 0
25 -85 -26 295 296 0
25 -85 -26 295 -296 0
25 -85 -26 -295 296 0
25 -85 -26 -295 -296 0
-25 85 -26 297 298 0
-25 85 -26 297 -298 0
-25 85 -26 -297 298 0
-25 85 -26 -297 -298 0
26 86 27 299 300 0
26 86 27 299 -300 0
26 86 27 -299 300 0
26 86 27 -299 -300 0
-26 -86 27 301 302 0
-26 -86 27 301 -302 0
-26 -86 27 -301 302 0
-26 -86 27 -301 -302 0
26 -86 -27 303 304 0
26 -86 -27 303 -304 0
26 -86 -27 -303 304 0
26 -86 -27 -303 -304 0
-26 86 -27 305 306 0
-26 86 -27 305 -306 0
-26 86 -27 -305 306 0
-26 86 -27 -305 -306 0
27 87 28 307 308 0
27 87 28 307 -308 0
27 87 28 -307 308 0
27 87 28 -307 -308 0
-27 -87 28 309 310 0
-27 -87 28 309 -310 0
-27 -87 28 -309 310 0
-27 -87 28 -309 -310 0
27 -87 -28 311 312 0
27 -87 -28 311 -312 0
27 -87 -28 -311 312 0
27 -87 -28 -311 -312 0
-27 87 -28 313 314 0
-27 87 -28 313 -314 0
-27 87 -28 -313 314 0
-27 87 -28 -313 -314 0
28 88 29 315 316 0
28 88 29 315 -316 0
28 88 29 -315 316 0
28 88 29 -315 -316 0
-28 -88 29 317 318 0
-28 -88 29 317 -318 0
-28 -88 29 -317 318 0
-28 -88 29 -317 -318 0
28 -88 -29 319 320 0
28 -88 -29 319 -320 0
28 -88 -29 -319 320 0
28 -88 -29 -319 -320 0
-28 88 -29 321 322 0
-28 88 -29 321 -322 0
-28 88 -29 -321 322 0
-28 88 -29 -321 -322 0
29 89 90 323 324 0
29 89 90 323 -324 0
29 89 90 -323 324 0
29 89 90 -323 -324 0
-29 -89 90 325 326 0
-29 -89 90 325 -326 0
-29 -89 90 -325 326 0
-29 -89 90 -325 -326 0
29 -89 -90 327 328 0
29 -89 -90 327 -328 0
29 -89 -90 -327 328 0
29 -89 -90 -327 -328 0
-29 89 -90 329 330 0
-29 89 -90 329 -330 0
-29 89 -90 -329 330 0
-29 89 -90 -329 -330 0
30 89 90 331 332 0
30 89 90 331 -332 0
30 89 90 -331 332 0
30 89 90 -331 -332 0
-30 -89 90 333 334 0
-30 -89 90 333 -334 0
-30 -89 90 -333 334 0
-30 -89 90 -333 -334 0
30 -89 -90 335 336 0
30 -89 -90 335 -336 0
30 -89 -90 -335 336 0
30 -89 -90 -335 -336 0
-30 89 -90 337 338 0
-30 89 -90 337 -338 0
-30 89 -90 -337 338 0
-30 89 -90 -337 -338 0
31 88 30 339 340 0
31 88 30 339 -340 0
31 88 30 -339 340 0
31 88 30 -339 -340 0
-31 -88 30 341 342 0
-31 -88 30 341 -342 0
-31 -88 30 -341 342 0
-31 -88 30 -341 -342 0
31 -88 -30 343 344 0
31 -88 -30 343 -344 0
31 -88 -30 -343 344 0
31 -88 -30 -343 -344 0
-31 88 -30 345 346 0
-31 88 -30 345 -346 0
-31 88 -30 -345 346 0
-31 88 -30 -345 -346 0
32 87 31 347 348 0
32 87 31 347 -348 0
32 87 31 -347 348 0
32 87 31 -347 -348 0
-32 -87 31 349 350 0
-32 -87 31 349 -350 0
-32 -87 31 -349 350 0
-32 -87 31 -349 -350 0
32 -87 -31 351 352 0
32 -87 -31 351 -352 0
32 -87 -31 -351 352 0
32 -87 -31 -351 -352 0
-32 87 -31 353 354 0
-32 87 -31 353 -354 0
-32 87 -31 -353 354 0
-32 87 -31 -353 -354 0
33 86 32 355 356 0
33 86 32 355 -356 0
33 86 32 -355 356 0
33 86 32 -355 -356 0
-33 -86 32 357 358 0
-33 -86 32 357 -358 0
-33 -86 32 -357 358 0
-33 -86 32 -357 -358 0
33 -86 -32 359 360 0
33 -86 -32 359 -360 0
33 -86 -32 -359 360 0
33 -86 -32 -359 -360 0
-33 86 -32 361 362 0
-33 86 -32 361 -362 0
-33 86 -32 -361 362 0
-33 86 -32 -361 -362 0
34 85 33 363 364 0
34 85 33 363 -364 0
34 85 33 -363 364 0
34 85 33 -363 -364 0
-34 -85 33 365 366 0
-34 -85 33 365 -366 0
-34 -85 33 -365 366 0
-34 -85 33 -365 -366 0
34 -85 -33 367 368 0
34 -85 -33 367 -368 0
34 -85 -33 -367 368 0
34 -85 -33 -367 -368 0
-34 85 -33 369 370 0
-34 85 -33 369 -370 0
-34 85 -33 -369 370 0
-34 85 -33 -369 -370 0
35 84 34 371 372 0
35 84 34 371 -372 0
35 84 34 -371 372 0
35 84 34 -371 -372 0
-35 -84 34 373 374 0
-35 -84 34 373 -374 0
-35 -84 34 -373 374 0
-35 -84 34 -373 -374 0
35 -84 -34 375 376 0
35 -84 -34 375 -376 0
35 -84 -34 -375 376 0
35 -84 -34 -375 -376 0
-35 84 -34 377 378 0
-35 84 -34 377 -378 0
-35 84 -34 -377 378 0
-35 84 -34 -377 -378 0
36 83 35 379 380 0
36 83 35 379 -380 0
36 83 35 -379 380 0
36 83 35 -379 -380 0
-36 -83 35 381 382 0
-36 -83 35 381 -382 0
-36 -83 35 -381 382 0
-36 -83 35 -381 -382 0
36 -83 -35 383 384 0
36 -83 -35 383 -384 0
36 -83 -35 -383 384 0
36 -83 -35 -383 -384 0
-36 83 -35 385 386 0
-36 83 -35 385 -386 0
-36 83 -35 -385 386 0
-36 83 -35 -385 -386 0
37 82 36 387 388 0
37 82 36 387 -388 0
37 82 36 -387 388 0
37 82 36 -387 -388 0
-37 -82 36 389 390 0
-37 -82 36 389 -390 0
-37 -82 36 -389 390 0
-37 -82 36 -389 -390 0
37 -82 -36 391 392 0
37 -82 -36 391 -392 0
37 -82 -36 -391 392 0
37 -82 -36 -391 -392 0
-37 82 -36 393 394 0
-37 82 -36 393 -394 0
-37 82 -36 -393 394 0
-37 82 -36 -393 -394 0
38 81 37 395 396 0
38 81 37 395 -396 0
38 81 37 -395 396 0
38 81 37 -395 -396 0
-38 -81 37 397 398 0
-38 -81 37 397 -398 0
-38 -81 37 -397 398 0
-38 -81 37 -397 -398 0
38 -81 -37 399 400 0
38 -81 -37 399 -400 0
38 -81 -37 -399 400 0
38 -81 -37 -399 -400 0
-38 81 -37 401 402 0
-38 81 -37 401 -402 0
-38 81 -37 -401 402 0
-38 81 -37 -401 -402 0
39 80 38 403 404 0
39 80 38 403 -404 0
39 80 38 -403 404 0
39 80 38 -403 -404 0
-39 -80 38 405 406 0
-39 -80 38 405 -406 0
-39 -80 38 -405 406 0
-39 -80 38 -405 -406 0
39 -80 -38 407 408 0
39 -80 -38 407 -408 0
39 -80 -38 -407 408 0
39 -80 -38 -407 -408 0
-39 80 -38 409 410 0
-39 80 -38 409 -410 0
-39 80 -38 -409 410 0
-39 80 -38 -409 -410 0
40 79 39 411 412 0
40 79 39 411 -412 0
40 79 39 -411 412 0
40 79 39 -411 -412 0
-40 -79 39 413 414 0
-40 -79 39 413 -414 0
-40 -79 39 -413 414 0
-40 -79 39 -413 -414 0
40 -79 -39 415 416 0
40 -79 -39 415 -416 0
40 -79 -39 -415 416 0
40 -79 -39 -415 -416 0
-40 79 -39 417 418 0
-40 79 -39 417 -418 0
-40 79 -39 -417 418 0
-40 79 -39 -417 -418 0
41 78 40 419 420 0
41 78 40 419 -420 0
41 78 40 -419 420 0
41 78 40 -419 -420 0
-41 -78 40 421 422 0
-41 -78 40 421 -422 0
-41 -78 40 -421 422 0
-41 -78 40 -421 -422 0
41 -78 -40 423 424 0
41 -78 -40 423 -424 0
41 -78 -40 -423 424 0
41 -78 -40 -423 -424 0
-41 78 -40 425 426 0
-41 78 -40 425 -426 0
-41 78 -40 -425 426 0
-41 78 -40 -425 -426 0
42 77 41 427 428 0
42 77 41 427 -428 0
42 77 41 -427 428 0
42 77 41 -427 -428 0
-42 -77 41 429 430 0
-42 -77 41 429 -430 0
-42 -77 41 -429 430 0
-42 -77 41 -429 -430 0
42 -77 -41 431 432 0
42 -77 -41 431 -432 0
42 -77 -41 -431 432 0
42 -77 -41 -431 -432 0
-42 77 -41 433 434 0
-42 77 -41 433 -434 0
-42 77 -41 -433 434 0
-42 77 -41 -433 -434 0
43 76 42 435 436 0
43 76 42 435 -436 0
43 76 42 -435 436 0
43 76 42 -435 -436 0
-43 -76 42 437 438 0
-43 -76 42 437 -438 0
-43 -76 42 -437 438 0
-43 -76 42 -437 -438 0
43 -76 -42 439 440 0
43 -76 -42 439 -440 0
43 -76 -42 -439 440 0
43 -76 -42 -439 -440 0
-43 76 -42 441 442 0
-43 76 -42 441 -442 0
-43 76 -42 -441 442 0
-43 76 -42 -441 -442 0
44 75 43 443 444 0
44 75 43 443 -444 0
44 75 43 -443 444 0
44 75 43 -443 -444 0
-44 -75 43 445 446 0
-44 -75 43 445 -446 0
-44 -75 43 -445 446 0
-44 -75 43 -445 -446 0
44 -75 -43 447 448 0
44 -75 -43 447 -448 0
44 -75 -43 -447 448 0
44 -75 -43 -447 -448 0
-44 75 -43 449 450 0
-44 75 -43 449 -450 0
-44 75 -43 -449 450 0
-44 75 -43 -449 -450 0
45 74 44 451 452 0
45 74 44 451 -452 0
45 74 44 -451 452 0
45 74 44 -451 -452 0
-45 -74 44 453 454 0
-45 -74 44 453 -454 0
-45 -74 44 -453 454 0
-45 -74 44 -453 -454 0
45 -74 -44 455 456 0
45 -74 -44 455 -456 0
45 -74 -44 -455 456 0
45 -74 -44 -455 -456 0
-45 74 -44 457 458 0
-45 74 -44 457 -458 0
-45 74 -44 -457 458 0
-45 74 -44 -457 -458 0
46 73 45 459 460 0
46 73 45 459 -460 0
46 73 45 -459 460 0
46 73 45 -459 -460 0
-46 -73 45 461 462 0
-46 -73 45 461 -462 0
-46 -73 45 -461 462 0
-46 -73 45 -461 -462 0
46 -73 -45 463 464 0
46 -73 -45 463 -464 0
46 -73 -45 -463 464 0
46 -73 -45 -463 -464 0
-46 73 -45 465 466 0
-46 73 -45 465 -466 0
-46 73 -45 -465 466 0
-46 73 -45 -465 -466 0
47 72 46 467 468 0
47 72 46 467 -468 0
47 72 46 -467 468 0
47 72 46 -467 -468 0
-47 -72 46 469 470 0
-47 -72 46 469 -470 0
-47 -72 46 -469 470 0
-47 -72 46 -469 -470 0
47 -72 -46 471 472 0
47 -72 -46 471 -472 0
47 -72 -46 -471 472 0
47 -72 -46 -471 -472 0
-47 72 -46 473 474 0
-47 72 -46 473 -474 0
-47 72 -46 -473 474 0
-47 72 -46 -473 -474 0
48 71 47 475 476 0
48 71 47 475 -476 0
48 71 47 -475 476 0
48 71 47 -475 -476 0
-48 -71 47 477 478 0
-48 -71 47 477 -478 0
-48 -71 47 -477 478 0
-48 -71 47 -477 -478 0
48 -71 -47 479 480 0
48 -71 -47 479 -480 0
48 -71 -47 -479 480 0
48 -71 -47 -479 -480 0
-48 71 -47 481 482 0
-48 71 -47 481 -482 0
-48 71 -47 -481 482 0
-48 71 -47 -481 -482 0
49 70 48 483 484 0
49 70 48 483 -484 0
49 70 48 -483 484 0
49 70 48 -483 -484 0
-49 -70 48 485 486 0
-49 -70 48 485 -486 0
-49 -70 48 -485 486 0
-49 -70 48 -485 -486 0
49 -70 -48 487 488 0
49 -70 -48 487 -488 0
49 -70 -48 -487 488 0
49 -70 -48 -487 -488 0
-49 70 -48 489 490 0
-49 70 -48 489 -490 0
-49 70 -48 -489 490 0
-49 70 -48 -489 -490 0
50 69 49 491 492 0
50 69 49 491 -492 0
50 69 49 -491 492 0
50 69 49 -491 -492 0
-50 -69 49 493 494 0
-50 -69 49 493 -494 0
-50 -69 49 -493 494 0
-50 -69 49 -493 -494 0
50 -69 -49 495 496 0
50 -69 -49 495 -496 0
50 -69 -49 -495 496 0
50 -69 -49 -495 -496 0
-50 69 -49 497 498 0
-50 69 -49 497 -498 0
-50 69 -49 -497 498 0
-50 69 -49 -497 -498 0
51 68 50 499 500 0
51 68 50 499 -500 0
51 68 50 -499 500 0
51 68 50 -499 -500 0
-51 -68 50 501 502 0
-51 -68 50 501 -502 0
-51 -68 50 -501 502 0
-51 -68 50 -501 -502 0
51 -68 -50 503 504 0
51 -68 -50 503 -504 0
51 -68 -50 -503 504 0
51 -68 -50 -503 -504 0
-51 68 -50 505 506 0
-51 68 -50 505 -506 0
-51 68 -50 -505 506 0
-51 68 -50 -505 -506 0
52 67 51 507 508 0
52 67 51 507 -508 0
52 67 51 -507 508 0
52 67 51 -507 -508 0
-52 -67 51 509 510 0
-52 -67 51 509 -510 0
-52 -67 51 -509 510 0
-52 -67 51 -509 -510 0
52 -67 -51 511 512 0
52 -67 -51 511 -512 0
52 -67 -51 -511 512 0
52 -67 -51 -511 -512 0
-52 67 -51 513 514 0
-52 67 -51 513 -514 0
-52 67 -51 -513 514 0
-52 67 -51 -513 -514 0
53 66 52 515 516 0
53 66 52 515 -516 0
53 66 52 -515 516 0
53 66 52 -515 -516 0
-53 -66 52 517 518 0
-53 -66 52 517 -518 0
-53 -66 52 -517 518 0
-53 -66 52 -517 -518 0
53 -66 -52 519 520 0
53 -66 -52 519 -520 0
53 -66 -52 -519 520 0
53 -66 -52 -519 -520 0
-53 66 -52 521 522 0
-53 66 -52 521 -522 0
-53 66 -52 -521 522 0
-53 66 -52 -521 -522 0
54 65 53 523 524 0
54 65 53 523 -524 0
54 65 53 -523 524 0
54 65 53 -523 -524 0
-54 -65 53 525 526 0
-54 -65 53 525 -526 0
-54 -65 53 -525 526 0
-54 -65 53 -525 -526 0
54 -65 -53 527 528 0
54 -65 -53 527 -528 0
54 -65 -53 -527 528 0
54 -65 -53 -527 -528 0
-54 65 -53 529 530 0
-54 65 -53 529 -530 0
-54 65 -53 -529 530 0
-54 65 -53 -529 -530 0
55 64 54 531 532 0
55 64 54 531 -532 0
55 64 54 -531 532 0
55 64 54 -531 -532 0
-55 -64 54 533 534 0
-55 -64 54 533 -534 0
-55 -64 54 -533 534 0
-55 -64 54 -533 -534 0
55 -64 -54 535 536 0
55 -64 -54 535 -536 0
55 -64 -54 -535 536 0
55 -64 -54 -535 -536 0
-55 64 -54 537 538 0
-55 64 -54 537 -538 0
-55 64 -54 -537 538 0
-55 64 -54 -537 -538 0
56 63 55 539 540 0
56 63 55 539 -540 0
56 63 55 -539 540 0
56 63 55 -539 -540 0
-56 -63 55 541 542 0
-56 -63 55 541 -542 0
-56 -63 55 -541 542 0
-56 -63 55 -541 -542 0
56 -63 -55 543 544 0
56 -63 -55 543 -544 0
56 -63 -55 -543 544 0
56 -63 -55 -543 -544 0
-56 63 -55 545 546 0
-56 63 -55 545 -546 0
-56 63 -55 -545 546 0
-56 63 -55 -545 -546 0
57 62 56 547 548 0
57 62 56 547 -548 0
57 62 56 -547 548 0
57 62 56 -547 -548 0
-57 -62 56 549 550 0
-57 -62 56 549 -550 0
-57 -62 56 -549 550 0
-57 -62 56 -549 -550 0
57 -62 -56 551 552 0
57 -62 -56 551 -552 0
57 -62 -56 -551 552 0
57 -62 -56 -551 -552 0
-57 62 -56 553 554 0
-57 62 -56 553 -554 0
-57 62 -56 -553 554 0
-57 62 -56 -553 -554 0
58 61 57 555 556 0
58 61 57 555 -556 0
58 61 57 -555 556 0
58 61 57 -555 -556 0
-58 -61 57 557 558 0
-58 -61 57 557 -558 0
-58 -61 57 -557 558 0
-58 -61 57 -557 -558 0
58 -61 -57 559 560 0
58 -61 -57 559 -560 0
58 -61 -57 -559 560 0
58 -61 -57 -559 -560 0
-58 61 -57 561 562 0
-58 61 -57 561 -562 0
-58 61 -57 -561 562 0
-58 61 -57 -561 -562 0
59 60 -58 563 564 0
59 60 -58 563 -564 0
59 60 -58 -563 564 0
59 60 -58 -563 -564 0
-59 -60 -58 565 566 0
-59 -60 -58 565 -566 0
-59 -60 -58 -565 566 0
-59 -60 -58 -565 -566 0
59 -60 58 567 568 0
59 -60 58 567 -568 0
59 -60 58 -567 568 0
59 -60 58 -567 -568 0
-59 60 58 569 570 0
-59 60 58 569 -570 0
-59 60 58 -569 570 0
-59 60 58 -569 -570 0
